830
1 0 5 804 1 787 1 788 1 789 1 790 1
2 0 5 708 1 104 1 222 1 366 1 292 1
3 0 5 321 1 328 1 508 1 616 1 676 1
4 0 5 226 1 295 1 517 1 92 1 649 1
5 0 5 680 1 398 1 65 1 676 1 3 1
6 0 5 562 1 630 1 606 1 167 1 314 1
7 0 5 310 1 505 1 383 1 665 1 637 1
8 0 5 149 1 405 1 411 1 226 1 773 1
9 0 5 525 1 336 1 597 1 661 1 205 1
10 0 5 774 1 756 1 748 1 660 1 230 1
11 0 5 161 1 324 1 26 1 730 1 288 1
12 0 5 761 1 733 1 605 1 741 1 583 1
13 0 5 95 1 588 1 294 1 62 1 559 1
14 0 5 642 1 197 1 745 1 265 1 777 1
15 0 5 755 1 592 1 311 1 489 1 240 1
16 0 5 420 1 346 1 185 1 599 1 726 1
17 0 5 497 1 206 1 295 1 539 1 29 1
18 0 5 554 1 272 1 129 1 618 1 269 1
19 0 5 194 1 136 1 776 1 31 1 54 1
20 0 5 684 1 371 1 369 1 133 1 416 1
21 0 5 533 1 566 1 89 1 529 1 702 1
22 0 5 248 1 575 1 743 1 349 1 588 1
23 0 5 503 1 511 1 271 1 463 1 441 1
24 0 5 430 1 450 1 129 1 392 1 414 1
25 0 5 304 1 400 1 537 1 86 1 76 1
26 0 5 730 1 288 1 11 1 161 1 402 1
27 0 5 720 1 407 1 272 1 714 1 18 1
28 0 5 409 1 57 1 146 1 336 1 588 1
29 0 5 497 1 232 1 206 1 465 1 500 1
30 0 5 442 1 135 1 663 1 332 1 590 1
31 0 5 641 1 194 1 19 1 147 1 652 1
32 0 5 337 1 555 1 165 1 567 1 267 1
33 0 5 58 1 50 1 602 1 719 1 421 1
34 0 5 186 1 141 1 696 1 261 1 717 1
35 0 5 635 1 137 1 614 1 783 1 594 1
36 0 5 314 1 183 1 630 1 466 1 452 1
37 0 5 274 1 447 1 534 1 451 1 120 1
38 0 5 570 1 590 1 480 1 358 1 715 1
39 0 5 117 1 247 1 531 1 488 1 362 1
40 0 5 329 1 603 1 653 1 64 1 73 1
41 0 5 117 1 526 1 488 1 39 1 752 1
42 0 5 531 1 568 1 564 1 233 1 362 1
43 0 5 345 1 548 1 423 1 132 1 643 1
44 0 5 325 1 476 1 634 1 342 1 584 1
45 0 5 725 1 429 1 353 1 596 1 467 1
46 0 5 211 1 395 1 593 1 464 1 359 1
47 0 5 82 1 522 1 444 1 694 1 668 1
48 0 5 366 1 498 1 145 1 177 1 772 1
49 0 5 315 1 225 1 55 1 71 1 116 1
50 0 5 72 1 33 1 58 1 653 1 602 1
51 0 5 413 1 750 1 60 1 375 1 296 1
52 0 5 601 1 92 1 517 1 561 1 170 1
53 0 5 196 1 176 1 80 1 495 1 393 1
54 0 5 159 1 156 1 306 1 136 1 19 1
55 0 5 116 1 277 1 49 1 486 1 315 1
56 0 5 536 1 752 1 623 1 526 1 41 1
57 0 5 28 1 572 1 188 1 727 1 718 1
58 0 5 33 1 50 1 59 1 653 1 762 1
59 0 5 279 1 762 1 58 1 719 1 33 1
60 0 5 413 1 296 1 51 1 586 1 148 1
61 0 5 163 1 339 1 425 1 598 1 189 1
62 0 5 184 1 208 1 13 1 87 1 294 1
63 0 5 248 1 491 1 502 1 759 1 575 1
64 0 5 514 1 219 1 462 1 235 1 40 1
65 0 5 398 1 417 1 438 1 5 1 611 1
66 0 5 388 1 182 1 738 1 96 1 160 1
67 0 5 743 1 672 1 512 1 87 1 636 1
68 0 5 555 1 178 1 567 1 541 1 231 1
69 0 5 318 1 609 1 624 1 739 1 258 1
70 0 5 525 1 205 1 531 1 233 1 42 1
71 0 5 315 1 49 1 437 1 270 1 669 1
72 0 5 50 1 602 1 235 1 224 1 119 1
73 0 5 712 1 462 1 329 1 484 1 40 1
74 0 5 267 1 165 1 291 1 379 1 664 1
75 0 5 440 1 127 1 614 1 431 1 783 1
76 0 5 400 1 327 1 25 1 304 1 86 1
77 0 5 166 1 406 1 766 1 376 1 9 1
78 0 5 396 1 115 1 102 1 433 1 143 1
79 0 5 481 1 118 1 560 1 744 1 699 1
80 0 5 176 1 53 1 196 1 340 1 673 1
81 0 5 483 1 507 1 547 1 359 1 356 1
82 0 5 549 1 282 1 190 1 47 1 770 1
83 0 5 639 1 289 1 151 1 228 1 297 1
84 0 5 583 1 773 1 252 1 149 1 25 1
85 0 5 580 1 394 1 469 1 698 1 687 1
86 0 5 537 1 458 1 595 1 304 1 113 1
87 0 5 672 1 512 1 67 1 294 1 588 1
88 0 5 450 1 285 1 430 1 754 1 790 1
89 0 5 529 1 702 1 21 1 264 1 704 1
90 0 5 470 1 764 1 605 1 733 1 472 1
91 0 5 390 1 110 1 395 1 211 1 593 1
92 0 5 517 1 52 1 4 1 601 1 174 1
93 0 5 474 1 675 1 610 1 692 1 463 1
94 0 5 242 1 654 1 751 1 198 1 723 1
95 0 5 348 1 13 1 360 1 370 1 418 1
96 0 5 266 1 273 1 111 1 66 1 132 1
97 0 5 144 1 489 1 375 1 156 1 311 1
98 0 5 307 1 664 1 490 1 165 1 424 1
99 0 5 477 1 186 1 594 1 685 1 125 1
100 0 5 662 1 217 1 695 1 467 1 355 1
101 0 5 584 1 476 1 573 1 260 1 376 1
102 0 5 396 1 433 1 327 1 78 1 286 1
103 0 5 240 1 592 1 705 1 604 1 755 1
104 0 5 772 1 708 1 744 1 2 1 658 1
105 0 5 220 1 130 1 415 1 617 1 389 1
106 0 5 658 1 222 1 292 1 482 1 708 1
107 0 5 192 1 207 1 426 1 356 1 283 1
108 0 5 319 1 361 1 223 1 210 1 148 1
109 0 5 162 1 365 1 728 1 686 1 342 1
110 0 5 91 1 390 1 395 1 593 1 211 1
111 0 5 273 1 266 1 715 1 96 1 132 1
112 0 5 631 1 389 1 122 1 490 1 460 1
113 0 5 595 1 252 1 537 1 86 1 458 1
114 0 5 491 1 502 1 759 1 629 1 63 1
115 0 5 143 1 78 1 396 1 244 1 303 1
116 0 5 277 1 55 1 486 1 645 1 256 1
117 0 5 39 1 247 1 41 1 280 1 526 1
118 0 5 577 1 591 1 234 1 79 1 225 1
119 0 5 224 1 235 1 481 1 72 1 699 1
120 0 5 183 1 440 1 451 1 37 1 75 1
121 0 5 496 1 587 1 629 1 378 1 663 1
122 0 5 389 1 556 1 337 1 112 1 415 1
123 0 5 229 1 212 1 363 1 547 1 324 1
124 0 5 283 1 204 1 401 1 599 1 207 1
125 0 5 477 1 542 1 685 1 99 1 620 1
126 0 5 412 1 501 1 379 1 533 1 657 1
127 0 5 440 1 75 1 614 1 280 1 387 1
128 0 5 155 1 200 1 565 1 681 1 609 1
129 0 5 554 1 24 1 737 1 392 1 18 1
130 0 5 415 1 617 1 105 1 389 1 220 1
131 0 5 410 1 162 1 275 1 357 1 476 1
132 0 5 273 1 266 1 111 1 43 1 96 1
133 0 5 647 1 684 1 681 1 20 1 742 1
134 0 5 437 1 381 1 627 1 486 1 55 1
135 0 5 506 1 480 1 731 1 332 1 30 1
136 0 5 459 1 194 1 19 1 54 1 306 1
137 0 5 635 1 35 1 542 1 152 1 125 1
138 0 5 461 1 423 1 302 1 239 1 378 1
139 0 5 520 1 299 1 732 1 667 1 768 1
140 0 5 638 1 191 1 788 1 789 1 790 1
141 0 5 451 1 34 1 534 1 399 1 261 1
142 0 5 414 1 788 1 789 1 790 1 791 1
143 0 5 115 1 303 1 78 1 244 1 616 1
144 0 5 97 1 374 1 158 1 156 1 652 1
145 0 5 772 1 48 1 366 1 625 1 104 1
146 0 5 409 1 28 1 588 1 348 1 512 1
147 0 5 626 1 735 1 640 1 31 1 194 1
148 0 5 586 1 361 1 296 1 60 1 262 1
149 0 5 405 1 8 1 773 1 411 1 84 1
150 0 5 749 1 618 1 607 1 18 1 530 1
151 0 5 297 1 647 1 742 1 700 1 83 1
152 0 5 686 1 544 1 137 1 623 1 357 1
153 0 5 557 1 408 1 404 1 249 1 159 1
154 0 5 209 1 343 1 173 1 478 1 301 1
155 0 5 690 1 128 1 200 1 344 1 527 1
156 0 5 54 1 159 1 776 1 144 1 306 1
157 0 5 260 1 573 1 443 1 716 1 493 1
158 0 5 711 1 374 1 578 1 144 1 592 1
159 0 5 306 1 54 1 408 1 156 1 459 1
160 0 5 738 1 657 1 198 1 182 1 193 1
161 0 5 11 1 288 1 320 1 26 1 730 1
162 0 5 109 1 131 1 365 1 342 1 686 1
163 0 5 61 1 425 1 468 1 604 1 339 1
164 0 5 757 1 646 1 775 1 373 1 442 1
165 0 5 74 1 664 1 32 1 267 1 337 1
166 0 5 77 1 406 1 766 1 376 1 718 1
167 0 5 452 1 530 1 630 1 6 1 749 1
168 0 5 227 1 608 1 354 1 355 1 201 1
169 0 5 574 1 707 1 758 1 312 1 221 1
170 0 5 589 1 332 1 561 1 506 1 52 1
171 0 5 454 1 637 1 309 1 237 1 768 1
172 0 5 259 1 779 1 457 1 290 1 698 1
173 0 5 209 1 301 1 478 1 154 1 231 1
174 0 5 600 1 517 1 187 1 52 1 92 1
175 0 5 197 1 14 1 642 1 214 1 193 1
176 0 5 196 1 80 1 673 1 53 1 334 1
177 0 5 729 1 498 1 382 1 48 1 366 1
178 0 5 563 1 364 1 236 1 68 1 231 1
179 0 5 651 1 767 1 671 1 382 1 384 1
180 0 5 262 1 249 1 586 1 202 1 760 1
181 0 5 417 1 611 1 303 1 438 1 676 1
182 0 5 738 1 66 1 388 1 160 1 193 1
183 0 5 120 1 440 1 36 1 37 1 466 1
184 0 5 559 1 238 1 62 1 294 1 770 1
185 0 5 16 1 697 1 420 1 346 1 402 1
186 0 5 34 1 99 1 261 1 696 1 594 1
187 0 5 174 1 517 1 411 1 245 1 355 1
188 0 5 409 1 348 1 588 1 28 1 146 1
189 0 5 339 1 492 1 650 1 287 1 621 1
190 0 5 504 1 82 1 615 1 414 1 522 1
191 0 5 637 1 309 1 789 1 802 1 792 1
192 0 5 107 1 207 1 283 1 426 1 356 1
193 0 5 198 1 160 1 738 1 175 1 182 1
194 0 5 19 1 136 1 31 1 640 1 263 1
195 0 5 446 1 569 1 313 1 721 1 201 1
196 0 5 176 1 53 1 80 1 334 1 673 1
197 0 5 14 1 642 1 175 1 745 1 214 1
198 0 5 193 1 751 1 160 1 738 1 94 1
199 0 5 380 1 760 1 202 1 639 1 228 1
200 0 5 546 1 527 1 128 1 155 1 408 1
201 0 5 721 1 446 1 354 1 350 1 195 1
202 0 5 380 1 199 1 180 1 760 1 305 1
203 0 5 368 1 322 1 509 1 734 1 506 1
204 0 5 283 1 599 1 124 1 81 1 547 1
205 0 5 661 1 525 1 70 1 9 1 531 1
206 0 5 232 1 497 1 29 1 17 1 539 1
207 0 5 192 1 107 1 283 1 124 1 204 1
208 0 5 62 1 770 1 668 1 418 1 559 1
209 0 5 173 1 154 1 301 1 478 1 231 1
210 0 5 515 1 216 1 108 1 723 1 319 1
211 0 5 395 1 46 1 464 1 390 1 91 1
212 0 5 726 1 363 1 670 1 346 1 229 1
213 0 5 341 1 465 1 516 1 422 1 500 1
214 0 5 265 1 14 1 427 1 175 1 197 1
215 0 5 422 1 369 1 782 1 371 1 254 1
216 0 5 723 1 515 1 704 1 702 1 210 1
217 0 5 100 1 662 1 353 1 695 1 596 1
218 0 5 677 1 551 1 700 1 416 1 782 1
219 0 5 64 1 514 1 221 1 462 1 510 1
220 0 5 105 1 130 1 415 1 288 1 236 1
221 0 5 510 1 758 1 552 1 707 1 219 1
222 0 5 106 1 658 1 2 1 184 1 299 1
223 0 5 319 1 108 1 361 1 427 1 751 1
224 0 5 119 1 699 1 421 1 625 1 72 1
225 0 5 49 1 591 1 315 1 292 1 577 1
226 0 5 411 1 4 1 8 1 295 1 517 1
227 0 5 354 1 168 1 552 1 707 1 169 1
228 0 5 639 1 289 1 83 1 456 1 199 1
229 0 5 123 1 324 1 363 1 212 1 670 1
230 0 5 495 1 10 1 80 1 53 1 774 1
231 0 5 301 1 478 1 178 1 173 1 364 1
232 0 5 206 1 29 1 497 1 465 1 516 1
233 0 5 568 1 42 1 564 1 70 1 531 1
234 0 5 703 1 577 1 560 1 118 1 612 1
235 0 5 119 1 72 1 499 1 481 1 50 1
236 0 5 178 1 563 1 364 1 105 1 220 1
237 0 5 768 1 520 1 171 1 454 1 505 1
238 0 5 184 1 482 1 672 1 645 1 87 1
239 0 5 448 1 406 1 423 1 718 1 302 1
240 0 5 103 1 604 1 755 1 705 1 592 1
241 0 5 298 1 683 1 338 1 250 1 713 1
242 0 5 751 1 654 1 94 1 723 1 515 1
243 0 5 323 1 473 1 456 1 524 1 550 1
244 0 5 508 1 328 1 321 1 143 1 616 1
245 0 5 293 1 619 1 688 1 608 1 187 1
246 0 5 82 1 504 1 656 1 522 1 648 1
247 0 5 367 1 39 1 117 1 488 1 692 1
248 0 5 575 1 22 1 63 1 349 1 743 1
249 0 5 180 1 557 1 404 1 262 1 586 1
250 0 5 298 1 736 1 241 1 528 1 713 1
251 0 5 453 1 667 1 352 1 454 1 139 1
252 0 5 773 1 113 1 84 1 293 1 149 1
253 0 5 370 1 418 1 564 1 597 1 233 1
254 0 5 782 1 724 1 551 1 215 1 677 1
255 0 5 633 1 728 1 401 1 109 1 709 1
256 0 5 645 1 277 1 486 1 281 1 116 1
257 0 5 429 1 632 1 678 1 655 1 725 1
258 0 5 739 1 609 1 624 1 69 1 681 1
259 0 5 698 1 172 1 457 1 469 1 580 1
260 0 5 157 1 573 1 443 1 634 1 485 1
261 0 5 431 1 186 1 34 1 141 1 783 1
262 0 5 586 1 180 1 148 1 249 1 60 1
263 0 5 300 1 640 1 735 1 344 1 543 1
264 0 5 622 1 529 1 331 1 89 1 541 1
265 0 5 214 1 427 1 14 1 778 1 777 1
266 0 5 96 1 273 1 111 1 715 1 132 1
267 0 5 74 1 379 1 165 1 567 1 32 1
268 0 5 493 1 634 1 443 1 157 1 260 1
269 0 5 585 1 737 1 392 1 554 1 18 1
270 0 5 669 1 582 1 437 1 71 1 436 1
271 0 5 503 1 23 1 737 1 607 1 562 1
272 0 5 407 1 554 1 27 1 618 1 18 1
273 0 5 266 1 111 1 132 1 96 1 715 1
274 0 5 37 1 447 1 689 1 452 1 391 1
275 0 5 131 1 661 1 476 1 162 1 376 1
276 0 5 339 1 598 1 765 1 613 1 189 1
277 0 5 645 1 116 1 55 1 256 1 281 1
278 0 5 579 1 484 1 710 1 435 1 312 1
279 0 5 59 1 719 1 384 1 767 1 762 1
280 0 5 387 1 127 1 466 1 117 1 614 1
281 0 5 482 1 277 1 256 1 645 1 238 1
282 0 5 82 1 668 1 522 1 648 1 694 1
283 0 5 204 1 124 1 599 1 207 1 401 1
284 0 5 644 1 646 1 545 1 164 1 757 1
285 0 5 308 1 754 1 88 1 638 1 519 1
286 0 5 475 1 351 1 538 1 449 1 327 1
287 0 5 650 1 492 1 189 1 750 1 621 1
288 0 5 730 1 161 1 26 1 460 1 535 1
289 0 5 456 1 83 1 639 1 228 1 243 1
290 0 5 779 1 428 1 386 1 172 1 390 1
291 0 5 494 1 657 1 379 1 74 1 267 1
292 0 5 658 1 591 1 225 1 106 1 104 1
293 0 5 245 1 688 1 619 1 113 1 252 1
294 0 5 184 1 87 1 672 1 13 1 62 1
295 0 5 340 1 539 1 673 1 4 1 226 1
296 0 5 750 1 60 1 148 1 413 1 51 1
297 0 5 700 1 151 1 742 1 83 1 647 1
298 0 5 250 1 241 1 713 1 736 1 683 1
299 0 5 732 1 139 1 520 1 708 1 746 1
300 0 5 344 1 263 1 459 1 690 1 527 1
301 0 5 173 1 209 1 231 1 478 1 154 1
302 0 5 727 1 572 1 239 1 138 1 378 1
303 0 5 616 1 143 1 181 1 676 1 244 1
304 0 5 25 1 537 1 400 1 86 1 76 1
305 0 5 380 1 565 1 701 1 202 1 199 1
306 0 5 159 1 54 1 459 1 408 1 136 1
307 0 5 424 1 98 1 490 1 631 1 518 1
308 0 5 285 1 638 1 519 1 754 1 792 1
309 0 5 637 1 171 1 191 1 802 1 791 1
310 0 5 7 1 505 1 665 1 383 1 628 1
311 0 5 489 1 755 1 15 1 375 1 604 1
312 0 5 317 1 574 1 579 1 769 1 169 1
313 0 5 569 1 446 1 350 1 195 1 538 1
314 0 5 630 1 36 1 6 1 576 1 562 1
315 0 5 49 1 71 1 225 1 577 1 55 1
316 0 5 687 1 403 1 479 1 469 1 455 1
317 0 5 769 1 312 1 574 1 721 1 354 1
318 0 5 69 1 609 1 553 1 739 1 258 1
319 0 5 108 1 223 1 361 1 210 1 148 1
320 0 5 682 1 161 1 364 1 11 1 563 1
321 0 5 3 1 616 1 508 1 328 1 244 1
322 0 5 734 1 368 1 203 1 506 1 561 1
323 0 5 243 1 456 1 473 1 524 1 289 1
324 0 5 11 1 229 1 670 1 363 1 123 1
325 0 5 44 1 342 1 98 1 476 1 162 1
326 0 5 660 1 724 1 432 1 748 1 516 1
327 0 5 76 1 433 1 102 1 396 1 286 1
328 0 5 244 1 508 1 3 1 321 1 616 1
329 0 5 40 1 712 1 73 1 603 1 462 1
330 0 5 468 1 771 1 347 1 331 1 163 1
331 0 5 622 1 347 1 264 1 771 1 722 1
332 0 5 506 1 589 1 170 1 135 1 442 1
333 0 5 697 1 518 1 185 1 631 1 420 1
334 0 5 649 1 673 1 176 1 196 1 393 1
335 0 5 528 1 571 1 550 1 736 1 558 1
336 0 5 597 1 9 1 28 1 253 1 57 1
337 0 5 32 1 556 1 122 1 389 1 165 1
338 0 5 558 1 713 1 241 1 298 1 745 1
339 0 5 189 1 61 1 492 1 650 1 163 1
340 0 5 539 1 295 1 673 1 80 1 176 1
341 0 5 213 1 465 1 516 1 500 1 422 1
342 0 5 325 1 162 1 109 1 44 1 255 1
343 0 5 763 1 154 1 478 1 209 1 173 1
344 0 5 300 1 690 1 527 1 155 1 263 1
345 0 5 43 1 643 1 693 1 548 1 766 1
346 0 5 16 1 212 1 185 1 726 1 670 1
347 0 5 331 1 771 1 622 1 722 1 330 1
348 0 5 95 1 409 1 188 1 370 1 146 1
349 0 5 743 1 636 1 22 1 67 1 491 1
350 0 5 449 1 313 1 538 1 201 1 446 1
351 0 5 475 1 286 1 458 1 538 1 688 1
352 0 5 251 1 453 1 444 1 309 1 667 1
353 0 5 596 1 725 1 45 1 467 1 217 1
354 0 5 227 1 168 1 201 1 769 1 721 1
355 0 5 608 1 174 1 168 1 217 1 187 1
356 0 5 483 1 507 1 81 1 107 1 359 1
357 0 5 410 1 686 1 623 1 152 1 131 1
358 0 5 753 1 570 1 683 1 241 1 298 1
359 0 5 464 1 507 1 483 1 81 1 547 1
360 0 5 95 1 770 1 282 1 418 1 668 1
361 0 5 108 1 148 1 319 1 296 1 223 1
362 0 5 439 1 474 1 488 1 42 1 93 1
363 0 5 670 1 212 1 229 1 324 1 346 1
364 0 5 563 1 178 1 320 1 682 1 236 1
365 0 5 109 1 686 1 162 1 728 1 544 1
366 0 5 48 1 498 1 708 1 145 1 177 1
367 0 5 247 1 576 1 692 1 474 1 466 1
368 0 5 734 1 203 1 509 1 322 1 393 1
369 0 5 371 1 416 1 215 1 20 1 782 1
370 0 5 253 1 418 1 668 1 95 1 348 1
371 0 5 20 1 369 1 684 1 215 1 422 1
372 0 5 701 1 404 1 565 1 200 1 128 1
373 0 5 775 1 757 1 695 1 164 1 442 1
374 0 5 578 1 652 1 158 1 144 1 711 1
375 0 5 621 1 492 1 489 1 311 1 51 1
376 0 5 661 1 766 1 275 1 166 1 101 1
377 0 5 487 1 419 1 762 1 59 1 385 1
378 0 5 496 1 63 1 121 1 302 1 629 1
379 0 5 501 1 267 1 657 1 126 1 291 1
380 0 5 305 1 202 1 199 1 83 1 701 1
381 0 5 627 1 134 1 636 1 116 1 486 1
382 0 5 628 1 729 1 498 1 651 1 179 1
383 0 5 7 1 651 1 310 1 628 1 382 1
384 0 5 521 1 767 1 671 1 719 1 179 1
385 0 5 540 1 487 1 434 1 419 1 435 1
386 0 5 428 1 290 1 779 1 593 1 426 1
387 0 5 466 1 280 1 127 1 576 1 440 1
388 0 5 66 1 182 1 738 1 160 1 96 1
389 0 5 415 1 617 1 122 1 130 1 112 1
390 0 5 91 1 110 1 395 1 211 1 593 1
391 0 5 689 1 150 1 714 1 618 1 274 1
392 0 5 585 1 737 1 430 1 129 1 504 1
393 0 5 649 1 734 1 334 1 601 1 196 1
394 0 5 580 1 85 1 426 1 698 1 469 1
395 0 5 211 1 46 1 390 1 91 1 110 1
396 0 5 78 1 102 1 433 1 327 1 115 1
397 0 5 504 1 511 1 82 1 656 1 648 1
398 0 5 65 1 5 1 438 1 611 1 680 1
399 0 5 534 1 674 1 141 1 37 1 451 1
400 0 5 76 1 25 1 304 1 86 1 537 1
401 0 5 124 1 255 1 283 1 633 1 709 1
402 0 5 460 1 730 1 185 1 26 1 535 1
403 0 5 316 1 685 1 479 1 687 1 455 1
404 0 5 372 1 153 1 408 1 249 1 701 1
405 0 5 149 1 8 1 773 1 411 1 226 1
406 0 5 448 1 239 1 166 1 77 1 766 1
407 0 5 720 1 272 1 27 1 714 1 618 1
408 0 5 153 1 546 1 306 1 159 1 404 1
409 0 5 146 1 188 1 28 1 348 1 588 1
410 0 5 357 1 131 1 686 1 623 1 162 1
411 0 5 226 1 8 1 405 1 149 1 4 1
412 0 5 126 1 501 1 379 1 657 1 533 1
413 0 5 60 1 51 1 296 1 750 1 375 1
414 0 5 615 1 142 1 789 1 790 1 791 1
415 0 5 617 1 389 1 130 1 105 1 122 1
416 0 5 369 1 782 1 215 1 677 1 254 1
417 0 5 181 1 611 1 438 1 65 1 676 1
418 0 5 370 1 253 1 95 1 770 1 360 1
419 0 5 487 1 377 1 712 1 385 1 762 1
420 0 5 16 1 185 1 599 1 346 1 333 1
421 0 5 625 1 602 1 224 1 521 1 699 1
422 0 5 215 1 371 1 213 1 369 1 782 1
423 0 5 461 1 138 1 239 1 448 1 406 1
424 0 5 631 1 307 1 518 1 490 1 98 1
425 0 5 598 1 163 1 468 1 765 1 61 1
426 0 5 580 1 394 1 107 1 192 1 698 1
427 0 5 265 1 747 1 659 1 760 1 223 1
428 0 5 386 1 290 1 779 1 593 1 110 1
429 0 5 725 1 257 1 45 1 655 1 596 1
430 0 5 24 1 793 1 794 1 795 1 796 1
431 0 5 783 1 261 1 75 1 451 1 614 1
432 0 5 660 1 326 1 748 1 724 1 10 1
433 0 5 396 1 102 1 327 1 78 1 286 1
434 0 5 540 1 385 1 435 1 484 1 680 1
435 0 5 484 1 434 1 278 1 540 1 680 1
436 0 5 678 1 669 1 270 1 691 1 257 1
437 0 5 134 1 582 1 270 1 71 1 486 1
438 0 5 611 1 676 1 417 1 398 1 181 1
439 0 5 362 1 610 1 564 1 648 1 656 1
440 0 5 127 1 183 1 75 1 120 1 466 1
441 0 5 780 1 23 1 503 1 271 1 463 1
442 0 5 30 1 663 1 373 1 164 1 757 1
443 0 5 260 1 157 1 634 1 268 1 493 1
444 0 5 82 1 184 1 615 1 789 1 790 1
445 0 5 523 1 455 1 696 1 457 1 186 1
446 0 5 195 1 569 1 313 1 201 1 350 1
447 0 5 274 1 37 1 689 1 534 1 391 1
448 0 5 239 1 406 1 423 1 718 1 302 1
449 0 5 538 1 350 1 619 1 688 1 475 1
450 0 5 24 1 88 1 791 1 793 1 794 1
451 0 5 141 1 37 1 120 1 534 1 431 1
452 0 5 167 1 530 1 689 1 630 1 274 1
453 0 5 251 1 667 1 352 1 454 1 139 1
454 0 5 171 1 637 1 309 1 251 1 191 1
455 0 5 479 1 445 1 457 1 523 1 316 1
456 0 5 323 1 243 1 289 1 524 1 228 1
457 0 5 259 1 523 1 469 1 479 1 455 1
458 0 5 595 1 86 1 113 1 537 1 351 1
459 0 5 136 1 306 1 527 1 159 1 300 1
460 0 5 535 1 730 1 402 1 288 1 130 1
461 0 5 423 1 138 1 239 1 548 1 302 1
462 0 5 73 1 710 1 64 1 329 1 219 1
463 0 5 503 1 606 1 23 1 675 1 511 1
464 0 5 359 1 211 1 46 1 483 1 507 1
465 0 5 500 1 341 1 213 1 29 1 470 1
466 0 5 387 1 576 1 36 1 280 1 127 1
467 0 5 725 1 353 1 775 1 45 1 695 1
468 0 5 330 1 163 1 425 1 331 1 264 1
469 0 5 687 1 85 1 259 1 316 1 457 1
470 0 5 90 1 764 1 500 1 465 1 472 1
471 0 5 741 1 472 1 733 1 12 1 605 1
472 0 5 741 1 471 1 764 1 733 1 90 1
473 0 5 243 1 323 1 524 1 550 1 456 1
474 0 5 93 1 675 1 692 1 576 1 362 1
475 0 5 351 1 286 1 538 1 449 1 688 1
476 0 5 584 1 101 1 44 1 131 1 275 1
477 0 5 99 1 125 1 685 1 594 1 186 1
478 0 5 173 1 209 1 301 1 154 1 343 1
479 0 5 455 1 316 1 687 1 457 1 403 1
480 0 5 135 1 731 1 506 1 203 1 590 1
481 0 5 79 1 119 1 235 1 560 1 118 1
482 0 5 238 1 645 1 281 1 184 1 672 1
483 0 5 507 1 356 1 359 1 81 1 593 1
484 0 5 435 1 278 1 434 1 73 1 462 1
485 0 5 573 1 157 1 260 1 693 1 766 1
486 0 5 116 1 134 1 55 1 256 1 437 1
487 0 5 377 1 419 1 385 1 540 1 762 1
488 0 5 362 1 247 1 39 1 692 1 93 1
489 0 5 311 1 15 1 97 1 375 1 755 1
490 0 5 631 1 307 1 112 1 556 1 122 1
491 0 5 114 1 636 1 349 1 502 1 63 1
492 0 5 621 1 650 1 189 1 287 1 375 1
493 0 5 268 1 157 1 716 1 443 1 634 1
494 0 5 291 1 657 1 513 1 493 1 160 1
495 0 5 230 1 53 1 80 1 10 1 176 1
496 0 5 121 1 587 1 629 1 378 1 502 1
497 0 5 29 1 17 1 206 1 232 1 539 1
498 0 5 729 1 177 1 48 1 382 1 366 1
499 0 5 560 1 612 1 740 1 235 1 514 1
500 0 5 465 1 764 1 470 1 29 1 90 1
501 0 5 412 1 379 1 126 1 657 1 291 1
502 0 5 759 1 114 1 491 1 629 1 63 1
503 0 5 23 1 271 1 463 1 511 1 441 1
504 0 5 190 1 780 1 397 1 549 1 246 1
505 0 5 7 1 310 1 637 1 706 1 237 1
506 0 5 332 1 135 1 322 1 203 1 170 1
507 0 5 483 1 356 1 359 1 81 1 464 1
508 0 5 244 1 328 1 321 1 3 1 616 1
509 0 5 736 1 368 1 203 1 250 1 393 1
510 0 5 552 1 221 1 219 1 707 1 596 1
511 0 5 23 1 503 1 397 1 463 1 780 1
512 0 5 743 1 67 1 87 1 672 1 146 1
513 0 5 493 1 643 1 494 1 716 1 132 1
514 0 5 64 1 499 1 219 1 235 1 612 1
515 0 5 216 1 723 1 210 1 242 1 751 1
516 0 5 724 1 213 1 341 1 326 1 254 1
517 0 5 92 1 52 1 4 1 174 1 226 1
518 0 5 424 1 333 1 631 1 697 1 633 1
519 0 5 638 1 308 1 285 1 754 1 706 1
520 0 5 139 1 768 1 237 1 299 1 667 1
521 0 5 384 1 719 1 602 1 767 1 421 1
522 0 5 668 1 282 1 648 1 549 1 246 1
523 0 5 445 1 696 1 457 1 455 1 34 1
524 0 5 456 1 473 1 323 1 550 1 243 1
525 0 5 205 1 661 1 70 1 9 1 233 1
526 0 5 752 1 41 1 56 1 117 1 39 1
527 0 5 546 1 200 1 459 1 344 1 155 1
528 0 5 335 1 558 1 736 1 250 1 713 1
529 0 5 89 1 21 1 264 1 541 1 702 1
530 0 5 749 1 167 1 452 1 689 1 630 1
531 0 5 42 1 39 1 70 1 233 1 568 1
532 0 5 544 1 679 1 728 1 709 1 365 1
533 0 5 566 1 21 1 567 1 126 1 412 1
534 0 5 399 1 37 1 674 1 451 1 141 1
535 0 5 460 1 130 1 288 1 730 1 402 1
536 0 5 623 1 56 1 752 1 152 1 526 1
537 0 5 304 1 86 1 113 1 25 1 595 1
538 0 5 449 1 475 1 350 1 688 1 286 1
539 0 5 340 1 295 1 17 1 206 1 673 1
540 0 5 434 1 385 1 435 1 680 1 487 1
541 0 5 763 1 529 1 264 1 68 1 622 1
542 0 5 709 1 137 1 679 1 125 1 635 1
543 0 5 553 1 781 1 690 1 666 1 263 1
544 0 5 532 1 679 1 728 1 152 1 365 1
545 0 5 629 1 284 1 663 1 646 1 644 1
546 0 5 200 1 527 1 408 1 155 1 404 1
547 0 5 726 1 599 1 81 1 123 1 212 1
548 0 5 43 1 715 1 345 1 423 1 132 1
549 0 5 82 1 504 1 615 1 522 1 414 1
550 0 5 571 1 524 1 473 1 243 1 335 1
551 0 5 677 1 218 1 254 1 748 1 782 1
552 0 5 510 1 707 1 221 1 758 1 227 1
553 0 5 781 1 543 1 666 1 318 1 690 1
554 0 5 129 1 272 1 18 1 737 1 618 1
555 0 5 567 1 68 1 32 1 178 1 236 1
556 0 5 122 1 337 1 490 1 389 1 112 1
557 0 5 153 1 249 1 408 1 404 1 156 1
558 0 5 745 1 338 1 713 1 528 1 298 1
559 0 5 184 1 444 1 208 1 62 1 13 1
560 0 5 499 1 612 1 234 1 118 1 481 1
561 0 5 170 1 52 1 734 1 322 1 601 1
562 0 5 6 1 749 1 607 1 167 1 630 1
563 0 5 364 1 178 1 236 1 320 1 231 1
564 0 5 568 1 42 1 439 1 253 1 233 1
565 0 5 701 1 372 1 305 1 128 1 681 1
566 0 5 533 1 21 1 567 1 529 1 68 1
567 0 5 555 1 566 1 68 1 32 1 267 1
568 0 5 564 1 233 1 42 1 531 1 253 1
569 0 5 313 1 446 1 195 1 350 1 538 1
570 0 5 358 1 753 1 683 1 38 1 241 1
571 0 5 550 1 335 1 524 1 778 1 528 1
572 0 5 727 1 57 1 718 1 302 1 28 1
573 0 5 485 1 157 1 260 1 693 1 101 1
574 0 5 169 1 312 1 758 1 707 1 317 1
575 0 5 248 1 22 1 63 1 743 1 572 1
576 0 5 367 1 474 1 675 1 466 1 314 1
577 0 5 234 1 118 1 315 1 225 1 71 1
578 0 5 711 1 641 1 374 1 158 1 652 1
579 0 5 278 1 710 1 312 1 484 1 462 1
580 0 5 394 1 698 1 85 1 426 1 259 1
581 0 5 620 1 685 1 125 1 403 1 709 1
582 0 5 270 1 437 1 486 1 134 1 436 1
583 0 5 761 1 84 1 12 1 25 1 605 1
584 0 5 101 1 476 1 260 1 573 1 275 1
585 0 5 392 1 737 1 269 1 129 1 607 1
586 0 5 262 1 148 1 60 1 180 1 249 1
587 0 5 590 1 496 1 121 1 629 1 545 1
588 0 5 13 1 87 1 146 1 188 1 409 1
589 0 5 170 1 332 1 695 1 373 1 506 1
590 0 5 587 1 30 1 663 1 135 1 442 1
591 0 5 225 1 292 1 658 1 118 1 577 1
592 0 5 15 1 103 1 240 1 755 1 705 1
593 0 5 46 1 110 1 395 1 386 1 356 1
594 0 5 783 1 99 1 186 1 431 1 477 1
595 0 5 458 1 113 1 86 1 537 1 293 1
596 0 5 353 1 45 1 725 1 429 1 510 1
597 0 5 336 1 253 1 370 1 9 1 348 1
598 0 5 765 1 613 1 425 1 61 1 704 1
599 0 5 204 1 16 1 547 1 283 1 420 1
600 0 5 174 1 52 1 589 1 170 1 517 1
601 0 5 649 1 52 1 393 1 92 1 561 1
602 0 5 72 1 421 1 33 1 50 1 521 1
603 0 5 653 1 40 1 329 1 712 1 58 1
604 0 5 163 1 240 1 755 1 61 1 311 1
605 0 5 733 1 761 1 12 1 90 1 741 1
606 0 5 463 1 675 1 6 1 474 1 503 1
607 0 5 749 1 737 1 271 1 562 1 618 1
608 0 5 355 1 168 1 245 1 174 1 187 1
609 0 5 258 1 739 1 69 1 318 1 624 1
610 0 5 656 1 439 1 93 1 397 1 648 1
611 0 5 676 1 438 1 417 1 181 1 398 1
612 0 5 560 1 499 1 234 1 118 1 514 1
613 0 5 765 1 598 1 704 1 702 1 425 1
614 0 5 783 1 75 1 127 1 280 1 431 1
615 0 5 414 1 444 1 789 1 790 1 791 1
616 0 5 303 1 321 1 3 1 676 1 244 1
617 0 5 415 1 389 1 130 1 105 1 122 1
618 0 5 272 1 749 1 18 1 554 1 607 1
619 0 5 688 1 449 1 293 1 538 1 350 1
620 0 5 581 1 125 1 709 1 685 1 542 1
621 0 5 492 1 375 1 650 1 287 1 189 1
622 0 5 331 1 347 1 264 1 722 1 771 1
623 0 5 536 1 56 1 357 1 410 1 152 1
624 0 5 739 1 258 1 69 1 681 1 609 1
625 0 5 699 1 421 1 744 1 772 1 224 1
626 0 5 666 1 147 1 735 1 640 1 263 1
627 0 5 381 1 134 1 437 1 270 1 691 1
628 0 5 382 1 768 1 729 1 665 1 383 1
629 0 5 545 1 502 1 759 1 121 1 114 1
630 0 5 6 1 167 1 314 1 452 1 36 1
631 0 5 490 1 424 1 112 1 518 1 307 1
632 0 5 655 1 740 1 257 1 703 1 669 1
633 0 5 255 1 518 1 401 1 333 1 424 1
634 0 5 268 1 443 1 260 1 493 1 157 1
635 0 5 137 1 35 1 125 1 542 1 594 1
636 0 5 349 1 67 1 381 1 491 1 645 1
637 0 5 309 1 171 1 191 1 505 1 706 1
638 0 5 519 1 754 1 308 1 706 1 140 1
639 0 5 83 1 228 1 289 1 199 1 456 1
640 0 5 735 1 263 1 147 1 194 1 626 1
641 0 5 31 1 578 1 652 1 776 1 374 1
642 0 5 14 1 197 1 745 1 558 1 175 1
643 0 5 693 1 716 1 345 1 157 1 513 1
644 0 5 284 1 646 1 691 1 545 1 757 1
645 0 5 277 1 256 1 482 1 116 1 55 1
646 0 5 164 1 284 1 757 1 644 1 775 1
647 0 5 133 1 151 1 742 1 297 1 83 1
648 0 5 668 1 522 1 439 1 610 1 656 1
649 0 5 334 1 393 1 601 1 673 1 176 1
650 0 5 287 1 492 1 189 1 621 1 750 1
651 0 5 179 1 383 1 767 1 671 1 382 1
652 0 5 776 1 374 1 641 1 578 1 31 1
653 0 5 603 1 58 1 50 1 40 1 33 1
654 0 5 751 1 242 1 94 1 198 1 723 1
655 0 5 740 1 632 1 257 1 429 1 725 1
656 0 5 610 1 246 1 439 1 648 1 397 1
657 0 5 501 1 379 1 291 1 160 1 494 1
658 0 5 106 1 292 1 104 1 222 1 591 1
659 0 5 747 1 760 1 427 1 778 1 265 1
660 0 5 326 1 748 1 432 1 724 1 10 1
661 0 5 205 1 525 1 376 1 9 1 70 1
662 0 5 100 1 217 1 695 1 467 1 353 1
663 0 5 442 1 545 1 164 1 284 1 30 1
664 0 5 98 1 165 1 74 1 307 1 325 1
665 0 5 310 1 628 1 7 1 505 1 382 1
666 0 5 781 1 626 1 553 1 543 1 147 1
667 0 5 251 1 453 1 139 1 732 1 352 1
668 0 5 648 1 522 1 282 1 370 1 770 1
669 0 5 270 1 703 1 436 1 71 1 632 1
670 0 5 363 1 212 1 324 1 346 1 229 1
671 0 5 179 1 384 1 651 1 767 1 521 1
672 0 5 87 1 67 1 512 1 238 1 482 1
673 0 5 334 1 340 1 176 1 295 1 649 1
674 0 5 717 1 399 1 534 1 141 1 447 1
675 0 5 606 1 93 1 474 1 463 1 576 1
676 0 5 611 1 438 1 181 1 616 1 3 1
677 0 5 218 1 551 1 782 1 416 1 254 1
678 0 5 691 1 436 1 257 1 669 1 582 1
679 0 5 532 1 544 1 709 1 542 1 728 1
680 0 5 5 1 540 1 398 1 434 1 435 1
681 0 5 624 1 739 1 258 1 565 1 133 1
682 0 5 320 1 364 1 161 1 563 1 11 1
683 0 5 241 1 298 1 358 1 570 1 753 1
684 0 5 20 1 371 1 133 1 369 1 647 1
685 0 5 477 1 403 1 125 1 99 1 581 1
686 0 5 357 1 410 1 152 1 365 1 109 1
687 0 5 469 1 316 1 479 1 457 1 85 1
688 0 5 619 1 293 1 449 1 538 1 475 1
689 0 5 391 1 274 1 452 1 447 1 530 1
690 0 5 155 1 344 1 543 1 300 1 527 1
691 0 5 678 1 436 1 644 1 257 1 646 1
692 0 5 367 1 474 1 247 1 93 1 362 1
693 0 5 643 1 716 1 766 1 157 1 573 1
694 0 5 770 1 282 1 418 1 47 1 208 1
695 0 5 662 1 373 1 589 1 100 1 467 1
696 0 5 523 1 717 1 34 1 445 1 186 1
697 0 5 333 1 185 1 402 1 518 1 420 1
698 0 5 580 1 259 1 85 1 469 1 394 1
699 0 5 625 1 744 1 224 1 421 1 119 1
700 0 5 297 1 742 1 151 1 218 1 83 1
701 0 5 372 1 565 1 305 1 404 1 202 1
702 0 5 704 1 89 1 613 1 598 1 765 1
703 0 5 234 1 669 1 632 1 577 1 71 1
704 0 5 702 1 613 1 216 1 598 1 765 1
705 0 5 771 1 722 1 103 1 240 1 592 1
706 0 5 637 1 309 1 191 1 638 1 789 1
707 0 5 169 1 758 1 552 1 221 1 574 1
708 0 5 104 1 2 1 366 1 299 1 658 1
709 0 5 679 1 542 1 532 1 728 1 620 1
710 0 5 579 1 278 1 462 1 219 1 312 1
711 0 5 158 1 578 1 374 1 592 1 144 1
712 0 5 73 1 329 1 419 1 603 1 762 1
713 0 5 558 1 338 1 298 1 241 1 528 1
714 0 5 720 1 534 1 27 1 689 1 391 1
715 0 5 111 1 273 1 548 1 266 1 132 1
716 0 5 157 1 643 1 693 1 493 1 260 1
717 0 5 674 1 696 1 141 1 399 1 534 1
718 0 5 239 1 572 1 727 1 57 1 406 1
719 0 5 521 1 279 1 384 1 59 1 33 1
720 0 5 407 1 27 1 714 1 272 1 618 1
721 0 5 201 1 769 1 195 1 446 1 317 1
722 0 5 705 1 771 1 347 1 331 1 622 1
723 0 5 216 1 515 1 242 1 704 1 210 1
724 0 5 326 1 254 1 516 1 660 1 748 1
725 0 5 45 1 429 1 467 1 353 1 257 1
726 0 5 212 1 547 1 346 1 16 1 123 1
727 0 5 572 1 718 1 302 1 57 1 575 1
728 0 5 532 1 709 1 544 1 255 1 109 1
729 0 5 498 1 177 1 382 1 628 1 366 1
730 0 5 26 1 288 1 460 1 402 1 161 1
731 0 5 480 1 135 1 203 1 506 1 322 1
732 0 5 299 1 139 1 667 1 746 1 453 1
733 0 5 605 1 12 1 761 1 741 1 90 1
734 0 5 368 1 322 1 393 1 561 1 203 1
735 0 5 640 1 147 1 626 1 263 1 194 1
736 0 5 250 1 509 1 298 1 528 1 335 1
737 0 5 585 1 392 1 271 1 129 1 269 1
738 0 5 160 1 182 1 388 1 66 1 198 1
739 0 5 258 1 624 1 609 1 69 1 681 1
740 0 5 655 1 499 1 632 1 703 1 514 1
741 0 5 471 1 472 1 733 1 12 1 605 1
742 0 5 297 1 700 1 151 1 647 1 416 1
743 0 5 512 1 67 1 349 1 22 1 636 1
744 0 5 772 1 625 1 699 1 104 1 145 1
745 0 5 558 1 642 1 14 1 777 1 338 1
746 0 5 444 1 732 1 299 1 139 1 184 1
747 0 5 659 1 427 1 760 1 265 1 778 1
748 0 5 660 1 756 1 326 1 551 1 10 1
749 0 5 530 1 607 1 150 1 618 1 562 1
750 0 5 296 1 51 1 287 1 650 1 413 1
751 0 5 242 1 654 1 94 1 198 1 723 1
752 0 5 526 1 56 1 536 1 41 1 623 1
753 0 5 358 1 570 1 683 1 241 1 38 1
754 0 5 285 1 638 1 308 1 519 1 88 1
755 0 5 15 1 311 1 240 1 604 1 489 1
756 0 5 748 1 774 1 10 1 551 1 660 1
757 0 5 775 1 164 1 646 1 373 1 284 1
758 0 5 707 1 169 1 221 1 574 1 552 1
759 0 5 502 1 114 1 491 1 629 1 63 1
760 0 5 659 1 747 1 199 1 778 1 427 1
761 0 5 605 1 12 1 583 1 733 1 741 1
762 0 5 59 1 377 1 58 1 419 1 279 1
763 0 5 343 1 541 1 722 1 154 1 478 1
764 0 5 470 1 90 1 472 1 500 1 29 1
765 0 5 598 1 613 1 425 1 704 1 702 1
766 0 5 376 1 693 1 166 1 406 1 573 1
767 0 5 179 1 384 1 651 1 671 1 521 1
768 0 5 237 1 520 1 628 1 139 1 383 1
769 0 5 317 1 721 1 312 1 354 1 201 1
770 0 5 694 1 184 1 82 1 208 1 360 1
771 0 5 347 1 705 1 722 1 330 1 331 1
772 0 5 145 1 744 1 104 1 625 1 48 1
773 0 5 252 1 149 1 405 1 84 1 8 1
774 0 5 10 1 756 1 748 1 243 1 230 1
775 0 5 757 1 373 1 164 1 646 1 467 1
776 0 5 652 1 19 1 641 1 31 1 156 1
777 0 5 778 1 745 1 265 1 14 1 571 1
778 0 5 777 1 571 1 265 1 745 1 760 1
779 0 5 290 1 172 1 428 1 386 1 426 1
780 0 5 441 1 504 1 511 1 271 1 82 1
781 0 5 666 1 553 1 543 1 626 1 318 1
782 0 5 254 1 416 1 215 1 551 1 677 1
783 0 5 431 1 614 1 594 1 75 1 261 1
784 0 5 804 1 787 1 788 1 789 1 790 1
785 0 5 804 1 787 1 788 1 789 1 790 1
786 0 5 804 1 787 1 788 1 789 1 790 1
787 0 5 804 1 787 1 788 1 789 1 790 1
788 0 5 804 1 787 1 788 1 789 1 790 1
789 0 5 804 1 787 1 788 1 789 1 790 1
790 0 5 804 1 787 1 788 1 789 1 790 1
791 0 5 804 1 787 1 788 1 789 1 790 1
792 0 5 804 1 787 1 788 1 789 1 790 1
793 0 5 804 1 787 1 788 1 789 1 790 1
794 0 5 804 1 787 1 788 1 789 1 790 1
795 0 5 804 1 787 1 788 1 789 1 790 1
796 0 5 804 1 787 1 788 1 789 1 790 1
797 0 5 804 1 787 1 788 1 789 1 790 1
798 0 5 804 1 787 1 788 1 789 1 790 1
799 0 5 804 1 787 1 788 1 789 1 790 1
800 0 5 804 1 787 1 788 1 789 1 790 1
801 0 5 804 1 787 1 788 1 789 1 790 1
802 0 5 804 1 787 1 788 1 789 1 790 1
803 0 5 804 1 787 1 788 1 789 1 790 1
804 0 5 804 1 787 1 788 1 789 1 790 1
805 0 5 804 1 787 1 788 1 789 1 790 1
806 0 5 804 1 787 1 788 1 789 1 790 1
807 0 5 804 1 787 1 788 1 789 1 790 1
808 0 5 804 1 787 1 788 1 789 1 790 1
809 0 5 804 1 787 1 788 1 789 1 790 1
810 0 5 804 1 787 1 788 1 789 1 790 1
811 0 5 804 1 787 1 788 1 789 1 790 1
812 0 5 804 1 787 1 788 1 789 1 790 1
813 0 5 804 1 787 1 788 1 789 1 790 1
814 0 5 804 1 787 1 788 1 789 1 790 1
815 0 5 804 1 787 1 788 1 789 1 790 1
816 0 5 804 1 787 1 788 1 789 1 790 1
817 0 5 804 1 787 1 788 1 789 1 790 1
818 0 5 804 1 787 1 788 1 789 1 790 1
819 0 5 804 1 787 1 788 1 789 1 790 1
820 0 5 804 1 787 1 788 1 789 1 790 1
821 0 5 804 1 787 1 788 1 789 1 790 1
822 0 5 804 1 787 1 788 1 789 1 790 1
823 0 5 804 1 787 1 788 1 789 1 790 1
824 0 5 804 1 787 1 788 1 789 1 790 1
825 0 5 804 1 787 1 788 1 789 1 790 1
826 0 5 804 1 787 1 788 1 789 1 790 1
827 0 5 804 1 787 1 788 1 789 1 790 1
828 0 5 804 1 787 1 788 1 789 1 790 1
829 0 5 804 1 787 1 788 1 789 1 790 1
830 0 5 804 1 787 1 788 1 789 1 790 1
-1
EOF
